data/solutions/recovery/wellformed/moderate/flexible/wellformed_moderate_instance11/37.sol
Elapsed time: 0.19
Upper bound: 11159.0
Planning weighted value: 74294.0
C[0]=11159.0
C[1]=11157.0
C[2]=11156.0
y[0]=1
y[1]=2
y[2]=0
y[3]=1
y[4]=2
y[5]=2
y[6]=0
y[7]=2
y[8]=2
y[9]=1
y[10]=2
y[11]=2
y[12]=2
y[13]=0
y[14]=0
y[15]=1
y[16]=0
y[17]=1
y[18]=1
y[19]=1
y[20]=1
y[21]=1
y[22]=0
y[23]=2
y[24]=1
y[25]=0
y[26]=0
y[27]=1
y[28]=1
y[29]=0
y[30]=2
y[31]=1
y[32]=2
