data/solutions/recovery/wellformed/moderate/flexible/wellformed_moderate_instance11/37.log

Log started (V12.6.3.0) Fri Apr 20 20:57:24 2018

New value for default parallel thread count: 1

Problem '/tmp/tmp830Kzm.pyomo.lp' read.
Read time = 0.00 sec. (0.03 ticks)

Problem name         : /tmp/tmp830Kzm.pyomo.lp
Objective sense      : Minimize
Variables            :     104  [Nneg: 1,  Binary: 99,  General Integer: 4]
Objective nonzeros   :       1
Linear constraints   :      73  [Less: 36,  Equal: 37]
  Nonzeros           :    2185
  RHS nonzeros       :      67

Variables            : Min LB: 0.000000         Max UB: 1.000000       
Objective nonzeros   : Min   : 1.000000         Max   : 1.000000       
Linear constraints   :
  Nonzeros           : Min   : 1.000000         Max   : 1950.000       
  RHS nonzeros       : Min   : 1.000000         Max   : 4.000000       
Tried aggregator 2 times.
MIP Presolve eliminated 33 rows and 3 columns.
Aggregator did 4 substitutions.
Reduced MIP has 36 rows, 97 columns, and 253 nonzeros.
Reduced MIP has 96 binaries, 1 generals, 0 SOSs, and 0 indicators.
Presolve time = 0.00 sec. (0.76 ticks)
Found incumbent of value 33472.000000 after 0.00 sec. (0.94 ticks)
Probing time = 0.00 sec. (0.07 ticks)
Cover probing fixed 0 vars, tightened 1 bounds.
Tried aggregator 1 time.
Reduced MIP has 36 rows, 97 columns, and 253 nonzeros.
Reduced MIP has 96 binaries, 1 generals, 0 SOSs, and 0 indicators.
Presolve time = 0.00 sec. (0.17 ticks)
Probing time = 0.00 sec. (0.04 ticks)
Clique table members: 32.
MIP emphasis: balance optimality and feasibility.
MIP search method: dynamic search.
Parallel mode: none, using 1 thread.
Root relaxation solution time = 0.00 sec. (0.08 ticks)

        Nodes                                         Cuts/
   Node  Left     Objective  IInf  Best Integer    Best Bound    ItCnt     Gap

*     0+    0                        33472.0000     1950.0000            94.17%
      0     0    11157.3333     5    33472.0000    11157.3333        4   66.67%
*     0+    0                        11622.0000    11157.3333             4.00%
      0     0    11158.0000     6    11622.0000      Fract: 2       12    3.99%
      0     0    11158.0000     9    11622.0000       Cuts: 8       24    3.99%
*     0+    0                        11542.0000    11158.0000             3.33%
      0     0    11158.0000     6    11542.0000    MIRcuts: 5       30    3.33%
*     0+    0                        11395.0000    11158.0000             2.08%
      0     0    11158.0000    10    11395.0000       Cuts: 6       39    2.08%
*     0+    0                        11361.0000    11158.0000             1.79%
      0     2    11158.0000     8    11361.0000    11158.0000       39    1.79%
Elapsed time = 0.01 sec. (5.90 ticks, tree = 0.01 MB, solutions = 5)
*    26    10      integral     0    11337.0000    11158.0000      107    1.58%
*    50+   16                        11290.0000    11158.0000             1.17%
*    78    31      integral     0    11258.0000    11158.0000      244    0.89%
*   120    56      integral     0    11225.0000    11158.0000      322    0.60%
*   140    56      integral     0    11192.0000    11158.0000      381    0.30%
*   391    88      integral     0    11189.0000    11158.0000     1009    0.28%
*   410    97      integral     0    11174.0000    11158.0000     1035    0.14%
*   445   103      integral     0    11168.0000    11158.0000     1089    0.09%
*  1711+  161                        11166.0000    11158.0000             0.07%
*  2011+  184                        11161.0000    11158.0000             0.03%
*  2111+  260                        11159.0000    11158.0000             0.01%

Cover cuts applied:  1

Root node processing (before b&c):
  Real time             =    0.01 sec. (5.90 ticks)
Sequential b&c:
  Real time             =    0.17 sec. (115.21 ticks)
                          ------------
Total (root+branch&cut) =    0.18 sec. (121.10 ticks)

Solution pool: 16 solutions saved.

MIP - Integer optimal, tolerance (0.0001/1e-06):  Objective =  1.1159000000e+04
Current MIP best bound =  1.1158000000e+04 (gap = 1, 0.01%)
Solution time =    0.18 sec.  Iterations = 4134  Nodes = 2111 (261)
Deterministic time = 121.10 ticks  (685.58 ticks/sec)


Incumbent solution written to file '/tmp/tmptXnMnM.cplex.sol'.
